% File represents an instance of a Composite Structure problem to be solved by a CP framework
% Created on 2025-03-26 10:41:21.747
T = 50;
n = 16;
m = 24;
edges = [(1, 2),
(5, 6),
(9, 10),
(13, 14),
(2, 3),
(6, 7),
(10, 11),
(15, 14),
(3, 4),
(7, 8),
(11, 12),
(15, 16),
(5, 1),
(5, 9),
(9, 13),
(6, 2),
(6, 10),
(10, 14),
(7, 3),
(7, 11),
(15, 11),
(8, 4),
(8, 12),
(16, 12)];
counts = [|8, 20, 8, 8,
|8, 16, 8, 6,
|8, 12, 8, 4,
|8, 8, 8, 4,
|8, 22, 8, 12,
|8, 22, 8, 6,
|8, 18, 8, 4,
|8, 14, 8, 4,
|8, 20, 8, 8,
|8, 16, 8, 6,
|8, 12, 8, 4,
|6, 12, 6, 4,
|8, 14, 8, 8,
|8, 12, 8, 6,
|8, 12, 8, 8,
|6, 12, 6, 6|];
